\ENCODING=ISO-8859-1
\Problem name: formInicial

Minimize
 obj: 0 x1 + 0.5 x2 + 0.707106781186548 x3 + 0.5 x4 + 0.5 x5 + 0 x6 + 0.5 x7
      + 0.707106781186548 x8 + 0.707106781186548 x9 + 0.5 x10 + 0 x11 + 0.5 x12
      + 0.5 x13 + 0.707106781186548 x14 + 0.5 x15 + 0 x16 + 0 x17 + 0 x18
      + 0 x19 + 0 x20 + 1.5707963267949 x21 + 0 x22 + 0.785398163397448 x23
      + 1.17809724509617 x24 + 1.5707963267949 x25 + 1.17809724509617 x26
      + 0 x27 + 1.17809724509617 x28 + 1.5707963267949 x29
      + 1.17809724509617 x30 + 0.785398163397448 x31 + 0 x32 + 0 x33
      + 1.5707963267949 x34 + 1.17809724509617 x35 + 0.785398163397448 x36
      + 0 x37 + 0 x38 + 0 x39 + 0 x40 + 1.17809724509617 x41
      + 1.5707963267949 x42 + 0 x43 + 0.785398163397448 x44
      + 1.17809724509617 x45 + 1.5707963267949 x46 + 1.17809724509617 x47
      + 0 x48 + 0 x49 + 1.17809724509617 x50 + 1.5707963267949 x51
      + 1.17809724509617 x52 + 0.785398163397448 x53 + 0 x54
      + 1.5707963267949 x55 + 1.17809724509617 x56 + 0 x57 + 0 x58 + 0 x59
      + 0 x60 + 0.785398163397448 x61 + 1.17809724509617 x62
      + 1.5707963267949 x63 + 0 x64 + 0 x65 + 0.785398163397448 x66
      + 1.17809724509617 x67 + 1.5707963267949 x68 + 1.17809724509617 x69
      + 0 x70 + 1.17809724509617 x71 + 1.5707963267949 x72
      + 1.17809724509617 x73 + 0.785398163397448 x74 + 0 x75
      + 1.5707963267949 x76 + 0 x77 + 0 x78 + 0 x79 + 0 x80
Subject To
 c1:  x2 + x3 + x4  = 1
 c2:  x5 + x7 + x8  = 1
 c3:  x9 + x10 + x12  = 1
 c4:  x13 + x14 + x15  = 1
 c5:  x5 + x9 + x13  = 1
 c6:  x2 + x10 + x14  = 1
 c7:  x3 + x7 + x15  = 1
 c8:  x4 + x8 + x12  = 1
 c9:  x2 + x5 - x21 <= 1
 c10: x2 + x7 - x23 <= 1
 c11: x2 + x8 - x24 <= 1
 c12: x3 + x9 - x25 <= 1
 c13: x3 + x10 - x26 <= 1
 c14: x3 + x12 - x28 <= 1
 c15: x4 + x13 - x29 <= 1
 c16: x4 + x14 - x30 <= 1
 c17: x4 + x15 - x31 <= 1
 c18: x2 + x5 - x34 <= 1
 c19: x3 + x5 - x35 <= 1
 c20: x4 + x5 - x36 <= 1
 c21: x7 + x9 - x41 <= 1
 c22: x7 + x10 - x42 <= 1
 c23: x7 + x12 - x44 <= 1
 c24: x8 + x13 - x45 <= 1
 c25: x8 + x14 - x46 <= 1
 c26: x8 + x15 - x47 <= 1
 c27: x2 + x9 - x50 <= 1
 c28: x3 + x9 - x51 <= 1
 c29: x4 + x9 - x52 <= 1
 c30: x5 + x10 - x53 <= 1
 c31: x7 + x10 - x55 <= 1
 c32: x8 + x10 - x56 <= 1
 c33: x12 + x13 - x61 <= 1
 c34: x12 + x14 - x62 <= 1
 c35: x12 + x15 - x63 <= 1
 c36: x2 + x13 - x66 <= 1
 c37: x3 + x13 - x67 <= 1
 c38: x4 + x13 - x68 <= 1
 c39: x5 + x14 - x69 <= 1
 c40: x7 + x14 - x71 <= 1
 c41: x8 + x14 - x72 <= 1
 c42: x9 + x15 - x73 <= 1
 c43: x10 + x15 - x74 <= 1
 c44: x12 + x15 - x76 <= 1
Bounds
 0 <= x1 <= 1
 0 <= x2 <= 1
 0 <= x3 <= 1
 0 <= x4 <= 1
 0 <= x5 <= 1
 0 <= x6 <= 1
 0 <= x7 <= 1
 0 <= x8 <= 1
 0 <= x9 <= 1
 0 <= x10 <= 1
 0 <= x11 <= 1
 0 <= x12 <= 1
 0 <= x13 <= 1
 0 <= x14 <= 1
 0 <= x15 <= 1
 0 <= x16 <= 1
 0 <= x17 <= 1
 0 <= x18 <= 1
 0 <= x19 <= 1
 0 <= x20 <= 1
 0 <= x21 <= 1
 0 <= x22 <= 1
 0 <= x23 <= 1
 0 <= x24 <= 1
 0 <= x25 <= 1
 0 <= x26 <= 1
 0 <= x27 <= 1
 0 <= x28 <= 1
 0 <= x29 <= 1
 0 <= x30 <= 1
 0 <= x31 <= 1
 0 <= x32 <= 1
 0 <= x33 <= 1
 0 <= x34 <= 1
 0 <= x35 <= 1
 0 <= x36 <= 1
 0 <= x37 <= 1
 0 <= x38 <= 1
 0 <= x39 <= 1
 0 <= x40 <= 1
 0 <= x41 <= 1
 0 <= x42 <= 1
 0 <= x43 <= 1
 0 <= x44 <= 1
 0 <= x45 <= 1
 0 <= x46 <= 1
 0 <= x47 <= 1
 0 <= x48 <= 1
 0 <= x49 <= 1
 0 <= x50 <= 1
 0 <= x51 <= 1
 0 <= x52 <= 1
 0 <= x53 <= 1
 0 <= x54 <= 1
 0 <= x55 <= 1
 0 <= x56 <= 1
 0 <= x57 <= 1
 0 <= x58 <= 1
 0 <= x59 <= 1
 0 <= x60 <= 1
 0 <= x61 <= 1
 0 <= x62 <= 1
 0 <= x63 <= 1
 0 <= x64 <= 1
 0 <= x65 <= 1
 0 <= x66 <= 1
 0 <= x67 <= 1
 0 <= x68 <= 1
 0 <= x69 <= 1
 0 <= x70 <= 1
 0 <= x71 <= 1
 0 <= x72 <= 1
 0 <= x73 <= 1
 0 <= x74 <= 1
 0 <= x75 <= 1
 0 <= x76 <= 1
 0 <= x77 <= 1
 0 <= x78 <= 1
 0 <= x79 <= 1
 0 <= x80 <= 1
Binaries
 x1  x2  x3  x4  x5  x6  x7  x8  x9  x10  x11  x12  x13  x14  x15  x16  x17 
 x18  x19  x20  x21  x22  x23  x24  x25  x26  x27  x28  x29  x30  x31  x32 
 x33  x34  x35  x36  x37  x38  x39  x40  x41  x42  x43  x44  x45  x46  x47 
 x48  x49  x50  x51  x52  x53  x54  x55  x56  x57  x58  x59  x60  x61  x62 
 x63  x64  x65  x66  x67  x68  x69  x70  x71  x72  x73  x74  x75  x76  x77 
 x78  x79  x80 
End
